NAME : sim141.121133.tour
COMMENT : Length = 121133
COMMENT : Found by LKH [Keld Helsgaun] Sat Sep 15 22:37:33 2018
TYPE : TOUR
DIMENSION : 141
TOUR_SECTION
1
92
54
83
68
20
61
51
73
94
62
35
122
125
24
105
34
36
40
131
132
78
57
60
50
25
56
13
127
52
53
93
80
130
63
96
9
42
21
102
99
3
126
71
17
97
109
112
114
121
41
7
18
124
140
49
32
38
12
72
28
27
39
70
15
141
98
46
75
120
104
111
84
29
108
88
59
79
133
139
23
65
30
69
87
82
74
86
123
43
2
85
8
106
90
107
31
26
116
117
115
100
77
128
135
58
67
103
47
64
76
95
11
89
101
10
19
6
138
37
14
137
44
81
33
22
5
48
45
66
113
134
4
119
91
110
136
118
55
16
129
-1
EOF
